100
100
100
99
99
98
98
96
96
93
89
84
84
83
83
82
81
80
79
79
79
79
78
77
76
75
74
71
71
70
69
69
68
67
67
66
62
56
55
54
53
51
50
50
50
49
48
48
47
45
45
45
42
42
42
41
41
40
40
39
38
37
36
36
34
34
33
32
32
31
29
28
28
28
26
24
24
22
22
22
21
18
18
17
17
15
14
14
12
12
11
10
10
9
8
7
7
5
3
3
2
2
